31150 21627
46298 35582
33385 34013
5326 8803
21229 12238
52691 53693
23673 59500
4382 47653
5713 50933
13944 64308
53298 53903
2547 62172
46680 4081
13926 13505
27966 9662
63798 25709
32111 15406
7307 6410
5428 31309
3600 4208
64225 5230
18007 17026
37417 40125
35970 21115
5770 49482
21910 38953
40498 30595
15643 28912
26074 50054
53438 10081
21372 18118
42802 28036
61369 10602
2270 35936
53360 460
35870 1662
24588 49945
4546 19359
27564 30982
30085 10703
16887 14707
41846 39645
24507 56835
56418 10259
62527 15499
64701 31355
30273 19537
21757 56204
21119 44420
43188 47895
27875 29513
17637 295
